NAME: dataset25
TYPE: TSP
COMMENT: Archivo dataset25
DIMENSION: 25
NODE_COORD_SECTION
1 331.5824890137 200.8832702637
2 599.596496582 763.3575439453
3 329.4702758789 741.6614990234
4 247.0845031738 175.4703521729
5 383.1458129883 983.7536621094
6 806.969543457 620.0813598633
7 449.2161865234 598.8828125
8 596.3452758789 519.6122436523
9 987.4501953125 363.5938110352
10 200.7304992676 506.1364135742
11 674.926574707 82.9879608154
12 559.0725708008 185.5824584961
13 430.763885498 628.4603881836
14 344.6349487305 441.5888061523
15 315.535949707 614.0805053711
16 474.6949768066 940.3831787109
17 553.2548828125 774.2057495117
18 857.463684082 141.2698669434
19 93.9747085571 253.040435791
20 987.2370605469 859.4509887695
21 558.2297363281 834.7108154297
22 721.6636962891 23.8767852783
23 862.8983154297 392.7220153809
24 151.9492797852 305.6123352051
25 369.5298461914 236.2093353271
EOF
